
Gurobi 10.0.1 (linux64) logging started Sun Nov 26 15:59:48 2023

Set parameter LogFile to value "ArtificialInstance/ExperimentV2/S4T5K1/BaSp/gurobi91.txt"
Gurobi Optimizer version 10.0.1 build v10.0.1rc0 (linux64)

CPU model: AMD EPYC 7H12 64-Core Processor, instruction set [SSE2|AVX|AVX2]
Thread count: 128 physical cores, 128 logical processors, using up to 32 threads

Academic license 656792 - for non-commercial use only - registered to b.___@student.vu.nl
Optimize a model with 2420 rows, 3600 columns and 11840 nonzeros
Model fingerprint: 0x9d86b37d
Variable types: 0 continuous, 3600 integer (3600 binary)
Coefficient statistics:
  Matrix range     [1e+00, 1e+00]
  Objective range  [9e-01, 2e+01]
  Bounds range     [1e+00, 1e+00]
  RHS range        [1e+00, 1e+00]
Found heuristic solution: objective 641.0328958
Presolve time: 0.02s
Presolved: 2420 rows, 3600 columns, 11840 nonzeros
Variable types: 0 continuous, 3600 integer (3600 binary)

Root relaxation: objective 3.881016e+01, 2072 iterations, 0.05 seconds (0.05 work units)

    Nodes    |    Current Node    |     Objective Bounds      |     Work
 Expl Unexpl |  Obj  Depth IntInf | Incumbent    BestBd   Gap | It/Node Time

     0     0   38.81016    0  478  641.03290   38.81016  93.9%     -    0s
H    0     0                     189.6034328   38.81016  79.5%     -    0s
H    0     0                      58.4191550   38.81016  33.6%     -    0s
     0     0   42.09347    0  462   58.41916   42.09347  27.9%     -    0s
H    0     0                      56.1026139   42.09347  25.0%     -    0s
H    0     0                      52.6408640   46.12227  12.4%     -    0s
     0     0   46.68116    0  552   52.64086   46.68116  11.3%     -    0s
     0     0   46.68116    0  552   52.64086   46.68116  11.3%     -    0s
H    0     0                      51.8976784   48.61253  6.33%     -    0s
     0     0   48.61253    0  669   51.89768   48.61253  6.33%     -    0s
     0     0   48.63093    0  650   51.89768   48.63093  6.29%     -    0s
     0     2   48.63093    0  644   51.89768   48.63093  6.29%     -    0s

Cutting planes:
  Gomory: 7
  Zero half: 66
  RLT: 44

Explored 47 nodes (14081 simplex iterations) in 1.17 seconds (0.80 work units)
Thread count was 32 (of 128 available processors)

Solution count 6: 51.8977 52.6409 56.1026 ... 641.033

Optimal solution found (tolerance 1.00e-04)
Best objective 5.189767838262e+01, best bound 5.189767838262e+01, gap 0.0000%
